HUN,8,6,413
0,5,1,13,2,7,5,5,3,23,4,3
4,26,2,20,3,17,0,14,5,22,1,9
2,14,0,29,5,30,4,24,1,21,3,14
3,16,2,9,0,9,1,23,4,13,5,12
4,27,1,10,3,20,5,27,2,9,0,8
3,21,1,14,4,18,0,30,2,22,5,26
2,4,4,13,0,1,1,23,3,30,5,29
4,24,1,3,5,2,3,20,0,25,2,6
